PARAMETER_FILE = even/even_complete_graph_new/par/random72.par
PROBLEM_FILE = even/even_complete_graph_new/mat/random72.tsp
Successes/Runs = 0/10
Cost.min = 665, Cost.avg = 665.00, Cost.max = 665
Gap.min = 0.0000%, Gap.avg = 0.0000%, Gap.max = 0.0000%
Trials.min = 1000, Trials.avg = 1000.0, Trials.max = 1000
Time.min = 0.27 sec., Time.avg = 0.29 sec., Time.max = 0.32 sec.
Time.total = 2.98 sec.
